************************************************************************
file with basedata            : md368_.bas
initial value random generator: 292635797
************************************************************************
projects                      :  1
jobs (incl. supersource/sink ):  22
horizon                       :  148
RESOURCES
  - renewable                 :  2   R
  - nonrenewable              :  2   N
  - doubly constrained        :  0   D
************************************************************************
PROJECT INFORMATION:
pronr.  #jobs rel.date duedate tardcost  MPM-Time
    1     20      0       24       13       24
************************************************************************
PRECEDENCE RELATIONS:
jobnr.    #modes  #successors   successors
   1        1          3           2   3   4
   2        3          3           7  12  18
   3        3          3           8  17  21
   4        3          2           5  17
   5        3          2           6  11
   6        3          3          15  19  21
   7        3          3          10  13  16
   8        3          3           9  11  12
   9        3          3          10  13  14
  10        3          1          15
  11        3          2          13  14
  12        3          2          15  16
  13        3          1          19
  14        3          2          16  18
  15        3          1          20
  16        3          1          20
  17        3          1          19
  18        3          1          20
  19        3          1          22
  20        3          1          22
  21        3          1          22
  22        1          0        
************************************************************************
REQUESTS/DURATIONS:
jobnr. mode duration  R 1  R 2  N 1  N 2
------------------------------------------------------------------------
  1      1     0       0    0    0    0
  2      1     2       4   10   10   10
         2     5       4    7    6    7
         3     6       3    6    3    7
  3      1     1       4    7    6    6
         2     2       3    4    5    6
         3     4       1    3    3    4
  4      1     3       8    1   10    8
         2     9       8    1    9    7
         3    10       8    1    9    5
  5      1     1       6    3   10    5
         2     5       5    2    7    4
         3     9       3    2    3    1
  6      1     2       8    9   10    2
         2     4       5    7    8    2
         3     8       3    5    8    1
  7      1     4       1    8    4   10
         2     5       1    8    4    7
         3     8       1    7    2    3
  8      1     8       5    8    5    4
         2     9       5    8    4    4
         3    10       1    8    4    4
  9      1     4       6    5   10    6
         2     5       6    5    9    6
         3     6       3    4    8    5
 10      1     1       3    7    8    6
         2     1       3    6    8    7
         3     2       2    5    7    6
 11      1     2      10    8    5    7
         2     3      10    6    5    7
         3     4       9    6    5    6
 12      1     5       7    8    4    9
         2     6       7    7    4    9
         3     7       6    5    3    9
 13      1     4       3    3    5    5
         2     9       3    3    4    4
         3    10       2    3    4    3
 14      1     2       7    5   10    9
         2     3       6    5    9    9
         3     9       5    5    7    6
 15      1     3      10    8    6    5
         2     5       8    7    5    4
         3     7       7    6    4    4
 16      1     1       5    9    4    5
         2     9       5    5    2    4
         3    10       5    2    1    3
 17      1     1       8    3    8    8
         2     5       8    3    4    6
         3     7       6    2    4    3
 18      1     5       3    5    7    9
         2     5       4    4    9    8
         3     7       3    4    4    7
 19      1     2       7    5    5    3
         2     5       6    5    4    3
         3     8       4    5    4    2
 20      1     4       8    4    8    7
         2     5       6    3    5    6
         3     7       1    2    5    4
 21      1     4       9    6    3    9
         2     8       9    5    3    9
         3     9       7    5    1    8
 22      1     0       0    0    0    0
************************************************************************
RESOURCEAVAILABILITIES:
  R 1  R 2  N 1  N 2
   32   27  115  113
************************************************************************
MAXIMAL LAGS:
from  to  type  delay
    1   12   ES      0
    1    2   ES      0
    2   12   ES      0
    1    3   ES      0
    3   12   ES      0
    1    4   ES      0
    4   12   ES      0
    1    5   ES      0
    5   12   ES      0
    1    6   ES      0
    6   12   ES      0
    1    7   ES      0
    7   12   ES      0
    1    8   ES      0
    8   12   ES      0
    1    9   ES      0
    9   12   ES      0
    1   10   ES      0
   10   12   ES      0
    1   11   ES      0
   11   12   ES      0
    1   12   ES      0
    2    7   SS     -7
    2    7   SE      0
    7    2   SE      0
    2    7   ES      0
    2    7   EE      6
    2   18   SS     12
    2   18   SE     -8
    2   18   ES     -6
    2   18   EE     12
    3    8   SS     -8
    3    8   SE     -2
    3    8   ES      2
    3    8   EE     11
    3   17   SS     -7
    3   17   SE      3
    3   17   ES     -5
    3   17   EE      8
    3   21   SS     -3
    3   21   SE     10
    3   21   ES      1
    3   21   EE      5
    4    5   SS     10
    4    5   SE      7
    4    5   ES     10
    4    5   EE     -7
    4   17   SS      3
    4   17   SE    -11
    4   17   ES     11
    4   17   EE      9
    5    6   SS     -4
    5    6   SE      2
    5    6   ES     -7
    5    6   EE     -6
    5   11   SS     12
    5   11   SE      9
    5   11   ES      9
    5   11   EE     -5
    6   15   SS     -4
    6   15   SE      8
    6   15   ES     -4
    6   15   EE      1
    6   19   SS      1
    6   19   SE      0
    6   19   ES     -9
    6   19   EE    -11
    6   21   SS     -1
    6   21   SE     -9
    6   21   ES     -3
    6   21   EE      7
    7   10   SS     11
    7   10   SE     11
    7   10   ES      0
    7   10   EE    -10
    7   13   SS      5
    7   13   SE    -11
    7   13   ES      0
    7   13   EE      4
    7   16   SS      0
    7   16   SE     -7
    7   16   ES      4
    7   16   EE      5
    8    9   SS      0
    8    9   SE     12
    8    9   ES     11
    8    9   EE     11
    8   11   SS      4
    8   11   SE     10
    8   11   ES      4
    8   11   EE      3
    9   10   SS      7
    9   10   SE     -7
    9   10   ES     -4
    9   10   EE     -4
    9   13   SS      7
    9   13   SE     -4
    9   13   ES    -12
    9   13   EE     12
    9   14   SS     -5
    9   14   SE      9
    9   14   ES     12
    9   14   EE      8
   10   15   SS      9
   10   15   SE      7
   10   15   ES     -1
   10   15   EE    -10
   11   13   SS      4
   11   13   SE      1
   11   13   ES      7
   11   13   EE     10
   11   14   SS     -2
   11   14   SE      1
   11   14   ES    -10
   11   14   EE     -5
   12   15   SS      9
   12   15   SE     -3
   12   15   ES     -4
   12   15   EE    -11
   12   16   SS      5
   12   16   SE      5
   12   16   ES     -5
   12   16   EE     10
   13   19   SS      8
   13   19   SE     -5
   13   19   ES     -9
   13   19   EE      5
   14   16   SS     -5
   14   16   SE      5
   14   16   ES    -12
   14   16   EE     -9
   14   18   SS      0
   14   18   SE      6
   14   18   ES     11
   14   18   EE     -6
   15   20   SS     -4
   15   20   SE      3
   15   20   ES      1
   15   20   EE      6
   16   20   SS    -10
   16   20   SE     -8
   16   20   ES      8
   16   20   EE     -6
   17   19   SS      3
   17   19   SE      3
   17   19   ES      7
   17   19   EE     -5
   18   20   SS      8
   18   20   SE      7
   18   20   ES      5
   18   20   EE    -12
   19   22   SS    -10
   19   22   SE     12
   19   22   ES      9
   19   22   EE     -7
   20   22   SS     -7
   20   22   SE    -12
   20   22   ES    -10
   20   22   EE      0
   21   22   SS     -6
   21   22   SE     -9
   21   22   ES      4
   21   22   EE     12
************************************************************************
